encoding rcpsp/j60.sm/j6013_7.sm nv: 1017920 nc: 2059176 enctime: 13.32
encoding rcpsp/j60.sm/j6013_7.sm nv: 308557 nc: 622610 enctime: 3.40
c File: j6013_7.smnaive.wcnf
c timeout
c final solution cost: 95
c CPU time: 61.700233
s UNKNOWN

c File: j6013_7.sm.wcnf
c timeout
c final solution cost: 94
c CPU time: 60.485163
s UNKNOWN


encoding rcpsp/j60.sm/j6013_8.sm nv: 912870 nc: 1866644 enctime: 12.09
encoding rcpsp/j60.sm/j6013_8.sm nv: 381024 nc: 777626 enctime: 4.51
c File: j6013_8.smnaive.wcnf
c timeout
c final solution cost: 128
c CPU time: 61.608390
s UNKNOWN

c File: j6013_8.sm.wcnf
c timeout
c final solution cost: 130
c CPU time: 60.602062
s UNKNOWN


encoding rcpsp/j60.sm/j6013_9.sm nv: 1068200 nc: 2172816 enctime: 13.87
encoding rcpsp/j60.sm/j6013_9.sm nv: 363188 nc: 736920 enctime: 4.42
c File: j6013_9.smnaive.wcnf
c timeout
c final solution cost: 110
c CPU time: 61.895853
s UNKNOWN

c File: j6013_9.sm.wcnf
c timeout
c final solution cost: 111
c CPU time: 60.572001
s UNKNOWN


encoding rcpsp/j60.sm/j601_3.sm nv: 117607 nc: 276445 enctime: 2.39
encoding rcpsp/j60.sm/j601_3.sm nv: 26712 nc: 61090 enctime: 0.26
c File: j601_3.smnaive.wcnf
c optimal
c final solution cost: 68
c CPU time: 1.174920
s OPTIMUM FOUND

c File: j601_3.sm.wcnf
c optimal
c final solution cost: 68
c CPU time: 0.080795
s OPTIMUM FOUND


encoding rcpsp/j60.sm/j6014_10.sm nv: 1792296 nc: 3614794 enctime: 23.18
encoding rcpsp/j60.sm/j6014_10.sm nv: 385440 nc: 775094 enctime: 4.36
c File: j6014_10.smnaive.wcnf
c timeout
c final solution cost: 74
c CPU time: 62.783783
s UNKNOWN

c File: j6014_10.sm.wcnf
c timeout
c final solution cost: 77
c CPU time: 60.550342
s UNKNOWN


encoding rcpsp/j60.sm/j6014_1.sm nv: 1890108 nc: 3785626 enctime: 24.35
encoding rcpsp/j60.sm/j6014_1.sm nv: 368940 nc: 736858 enctime: 4.26
c File: j6014_1.smnaive.wcnf
c timeout
c final solution cost: 61
c CPU time: 62.830497
s UNKNOWN

c File: j6014_1.sm.wcnf
c timeout
c final solution cost: 61
c CPU time: 60.506573
s UNKNOWN


encoding rcpsp/j60.sm/j6014_2.sm nv: 1766688 nc: 3542266 enctime: 22.55
encoding rcpsp/j60.sm/j6014_2.sm nv: 352286 nc: 704316 enctime: 3.97
c File: j6014_2.smnaive.wcnf
c optimal
c final solution cost: 65
c CPU time: 8.829356
s OPTIMUM FOUND

c File: j6014_2.sm.wcnf
c optimal
c final solution cost: 65
c CPU time: 0.868742
s OPTIMUM FOUND


encoding rcpsp/j60.sm/j6014_3.sm nv: 1549664 nc: 3103415 enctime: 19.53
encoding rcpsp/j60.sm/j6014_3.sm nv: 328568 nc: 656243 enctime: 4.26
c File: j6014_3.smnaive.wcnf
c timeout
c final solution cost: 63
c CPU time: 62.354910
s UNKNOWN

c File: j6014_3.sm.wcnf
c timeout
c final solution cost: 62
c CPU time: 60.473787
s UNKNOWN


encoding rcpsp/j60.sm/j6014_4.sm nv: 1708927 nc: 3434238 enctime: 22.00
encoding rcpsp/j60.sm/j6014_4.sm nv: 354970 nc: 711372 enctime: 4.06
c File: j6014_4.smnaive.wcnf
c optimal
c final solution cost: 65
c CPU time: 39.506961
s OPTIMUM FOUND

c File: j6014_4.sm.wcnf
c optimal
c final solution cost: 65
c CPU time: 20.665575
s OPTIMUM FOUND


encoding rcpsp/j60.sm/j6014_5.sm nv: 1606629 nc: 3213234 enctime: 20.80
encoding rcpsp/j60.sm/j6014_5.sm nv: 328512 nc: 655257 enctime: 3.81
c File: j6014_5.smnaive.wcnf
c optimal
c final solution cost: 59
c CPU time: 10.176104
s OPTIMUM FOUND

c File: j6014_5.sm.wcnf
c optimal
c final solution cost: 59
c CPU time: 1.770464
s OPTIMUM FOUND


encoding rcpsp/j60.sm/j6014_6.sm nv: 1610280 nc: 3224590 enctime: 20.24
encoding rcpsp/j60.sm/j6014_6.sm nv: 342504 nc: 684078 enctime: 4.45
c File: j6014_6.smnaive.wcnf
c optimal
c final solution cost: 65
c CPU time: 9.081589
s OPTIMUM FOUND

c File: j6014_6.sm.wcnf
c optimal
c final solution cost: 65
c CPU time: 0.879908
s OPTIMUM FOUND


encoding rcpsp/j60.sm/j6014_7.sm nv: 1460552 nc: 2930543 enctime: 18.45
encoding rcpsp/j60.sm/j6014_7.sm nv: 328162 nc: 656698 enctime: 3.63
c File: j6014_7.smnaive.wcnf
c optimal
c final solution cost: 69
c CPU time: 3.949400
s OPTIMUM FOUND

c File: j6014_7.sm.wcnf
c optimal
c final solution cost: 69
c CPU time: 0.879232
s OPTIMUM FOUND


encoding rcpsp/j60.sm/j6014_8.sm nv: 1281312 nc: 2566971 enctime: 16.11
encoding rcpsp/j60.sm/j6014_8.sm nv: 413757 nc: 827571 enctime: 5.00
c File: j6014_8.smnaive.wcnf
c optimal
c final solution cost: 88
c CPU time: 3.198239
s OPTIMUM FOUND

c File: j6014_8.sm.wcnf
c optimal
c final solution cost: 88
c CPU time: 0.935208
s OPTIMUM FOUND


encoding rcpsp/j60.sm/j6014_9.sm nv: 1557051 nc: 3116932 enctime: 19.68
encoding rcpsp/j60.sm/j6014_9.sm nv: 317457 nc: 633808 enctime: 3.56
c File: j6014_9.smnaive.wcnf
c optimal
c final solution cost: 61
c CPU time: 11.241097
s OPTIMUM FOUND

c File: j6014_9.sm.wcnf
c optimal
c final solution cost: 61
c CPU time: 1.139544
s OPTIMUM FOUND


j60
1000
0
rcpsp/heur_output_log_0/heurj60.txt
encoding rcpsp/j60.sm/j601_4.sm nv: 124150 nc: 292117 enctime: 2.50
encoding rcpsp/j60.sm/j601_4.sm nv: 37054 nc: 85549 enctime: 0.50
c File: j601_4.smnaive.wcnf
c optimal
c final solution cost: 91
c CPU time: 0.960943
s OPTIMUM FOUND

c File: j601_4.sm.wcnf
c optimal
c final solution cost: 91
c CPU time: 0.113269
s OPTIMUM FOUND


j60
1000
0
rcpsp/heur_output_log_0/heurj60.txt
encoding rcpsp/j60.sm/j6015_10.sm nv: 2039275 nc: 4065030 enctime: 25.47
encoding rcpsp/j60.sm/j6015_10.sm nv: 420050 nc: 835662 enctime: 4.74
c File: j6015_10.smnaive.wcnf
c optimal
c final solution cost: 61
c CPU time: 4.254674
s OPTIMUM FOUND

c File: j6015_10.sm.wcnf
c optimal
c final solution cost: 61
c CPU time: 0.696467
s OPTIMUM FOUND


j60
1000
0
rcpsp/heur_output_log_0/heurj60.txt
encoding rcpsp/j60.sm/j6015_1.sm nv: 2067620 nc: 4137504 enctime: 26.09
encoding rcpsp/j60.sm/j6015_1.sm nv: 524620 nc: 1048004 enctime: 6.52
c File: j6015_1.smnaive.wcnf
c optimal
c final solution cost: 84
c CPU time: 4.875984
s OPTIMUM FOUND

c File: j6015_1.sm.wcnf
c optimal
c final solution cost: 84
c CPU time: 0.907820
s OPTIMUM FOUND


j60
1000
0
rcpsp/heur_output_log_0/heurj60.txt
encoding rcpsp/j60.sm/j6015_2.sm nv: 1727200 nc: 3468451 enctime: 22.31
encoding rcpsp/j60.sm/j6015_2.sm nv: 462280 nc: 926410 enctime: 5.09
c File: j6015_2.smnaive.wcnf
c optimal
c final solution cost: 89
c CPU time: 3.631417
s OPTIMUM FOUND

c File: j6015_2.sm.wcnf
c optimal
c final solution cost: 89
c CPU time: 0.930383
s OPTIMUM FOUND


j60
1000
0
rcpsp/heur_output_log_0/heurj60.txt
encoding rcpsp/j60.sm/j6015_3.sm nv: 2432304 nc: 4857987 enctime: 30.51
encoding rcpsp/j60.sm/j6015_3.sm nv: 519176 nc: 1034959 enctime: 6.69
c File: j6015_3.smnaive.wcnf
c optimal
c final solution cost: 72
c CPU time: 4.975677
s OPTIMUM FOUND

c File: j6015_3.sm.wcnf
c optimal
c final solution cost: 72
c CPU time: 0.859704
s OPTIMUM FOUND


j60
1000
0
rcpsp/heur_output_log_0/heurj60.txt
encoding rcpsp/j60.sm/j6015_4.sm nv: 2218194 nc: 4449252 enctime: 28.80
encoding rcpsp/j60.sm/j6015_4.sm nv: 456687 nc: 913764 enctime: 5.25
c File: j6015_4.smnaive.wcnf
c optimal
c final solution cost: 75
c CPU time: 5.778633
s OPTIMUM FOUND

c File: j6015_4.sm.wcnf
c optimal
c final solution cost: 75
c CPU time: 1.108310
s OPTIMUM FOUND


j60
1000
0
rcpsp/heur_output_log_0/heurj60.txt
encoding rcpsp/j60.sm/j6015_5.sm nv: 2133460 nc: 4271926 enctime: 27.52
encoding rcpsp/j60.sm/j6015_5.sm nv: 441620 nc: 882262 enctime: 5.11
c File: j6015_5.smnaive.wcnf
c optimal
c final solution cost: 70
c CPU time: 5.392326
s OPTIMUM FOUND

c File: j6015_5.sm.wcnf
c optimal
c final solution cost: 70
c CPU time: 0.775624
s OPTIMUM FOUND


j60
1000
0
rcpsp/heur_output_log_0/heurj60.txt
encoding rcpsp/j60.sm/j6015_6.sm nv: 1857708 nc: 3719958 enctime: 23.55
encoding rcpsp/j60.sm/j6015_6.sm nv: 428274 nc: 855693 enctime: 5.49
c File: j6015_6.smnaive.wcnf
c optimal
c final solution cost: 76
c CPU time: 3.691274
s OPTIMUM FOUND

c File: j6015_6.sm.wcnf
c optimal
c final solution cost: 76
c CPU time: 0.690476
s OPTIMUM FOUND


j60
1000
0
rcpsp/heur_output_log_0/heurj60.txt
encoding rcpsp/j60.sm/j6015_7.sm nv: 2288234 nc: 4565709 enctime: 28.86
encoding rcpsp/j60.sm/j6015_7.sm nv: 445315 nc: 886596 enctime: 5.16
c File: j6015_7.smnaive.wcnf
c optimal
c final solution cost: 64
c CPU time: 5.780527
s OPTIMUM FOUND

c File: j6015_7.sm.wcnf
c optimal
c final solution cost: 64
c CPU time: 0.816268
s OPTIMUM FOUND


j60
1000
0
rcpsp/heur_output_log_0/heurj60.txt
encoding rcpsp/j60.sm/j6015_8.sm nv: 2220508 nc: 4453540 enctime: 28.69
encoding rcpsp/j60.sm/j6015_8.sm nv: 490720 nc: 982120 enctime: 5.54
c File: j6015_8.smnaive.wcnf
c optimal
c final solution cost: 79
c CPU time: 5.471048
s OPTIMUM FOUND

c File: j6015_8.sm.wcnf
c optimal
c final solution cost: 79
c CPU time: 0.885395
s OPTIMUM FOUND


j60
1000
0
rcpsp/heur_output_log_0/heurj60.txt
encoding rcpsp/j60.sm/j6015_9.sm nv: 3013429 nc: 6010214 enctime: 38.65
encoding rcpsp/j60.sm/j6015_9.sm nv: 580423 nc: 1155218 enctime: 6.78
c File: j6015_9.smnaive.wcnf
c optimal
c final solution cost: 72
c CPU time: 6.970279
s OPTIMUM FOUND

c File: j6015_9.sm.wcnf
c optimal
c final solution cost: 72
c CPU time: 1.013006
s OPTIMUM FOUND


j60
1000
0
rcpsp/heur_output_log_0/heurj60.txt
encoding rcpsp/j60.sm/j601_5.sm nv: 118656 nc: 273432 enctime: 2.33
encoding rcpsp/j60.sm/j601_5.sm nv: 32256 nc: 72732 enctime: 0.42
c File: j601_5.smnaive.wcnf
c optimal
c final solution cost: 73
c CPU time: 2.339320
s OPTIMUM FOUND

c File: j601_5.sm.wcnf
c optimal
c final solution cost: 73
c CPU time: 0.135688
s OPTIMUM FOUND


j60
1000
0
rcpsp/heur_output_log_0/heurj60.txt
encoding rcpsp/j60.sm/j6016_10.sm nv: 2712843 nc: 5413379 enctime: 34.39
encoding rcpsp/j60.sm/j6016_10.sm nv: 524331 nc: 1044131 enctime: 6.06
c File: j6016_10.smnaive.wcnf
c optimal
c final solution cost: 68
c CPU time: 5.382555
s OPTIMUM FOUND

c File: j6016_10.sm.wcnf
c optimal
c final solution cost: 68
c CPU time: 0.843810
s OPTIMUM FOUND


j60
1000
0
rcpsp/heur_output_log_0/heurj60.txt
encoding rcpsp/j60.sm/j6016_1.sm nv: 3239832 nc: 6461874 enctime: 41.14
encoding rcpsp/j60.sm/j6016_1.sm nv: 575380 nc: 1145311 enctime: 7.34
c File: j6016_1.smnaive.wcnf
c optimal
c final solution cost: 64
c CPU time: 6.815443
s OPTIMUM FOUND

c File: j6016_1.sm.wcnf
c optimal
c final solution cost: 64
c CPU time: 1.008590
s OPTIMUM FOUND


j60
1000
0
rcpsp/heur_output_log_0/heurj60.txt
encoding rcpsp/j60.sm/j6016_2.sm nv: 3284064 nc: 6529100 enctime: 44.05
encoding rcpsp/j60.sm/j6016_2.sm nv: 635310 nc: 1261131 enctime: 9.14
c File: j6016_2.smnaive.wcnf
c optimal
c final solution cost: 64
c CPU time: 6.817134
s OPTIMUM FOUND

c File: j6016_2.sm.wcnf
c optimal
c final solution cost: 64
c CPU time: 1.088373
s OPTIMUM FOUND


j60
1000
0
rcpsp/heur_output_log_0/heurj60.txt
encoding rcpsp/j60.sm/j6016_3.sm nv: 2856396 nc: 5673455 enctime: 34.81
encoding rcpsp/j60.sm/j6016_3.sm nv: 499176 nc: 989615 enctime: 5.71
c File: j6016_3.smnaive.wcnf
c optimal
c final solution cost: 53
c CPU time: 5.417919
s OPTIMUM FOUND

c File: j6016_3.sm.wcnf
c optimal
c final solution cost: 53
c CPU time: 0.762985
s OPTIMUM FOUND


j60
1000
0
rcpsp/heur_output_log_0/heurj60.txt
encoding rcpsp/j60.sm/j6016_4.sm nv: 2570356 nc: 5114346 enctime: 32.86
encoding rcpsp/j60.sm/j6016_4.sm nv: 500932 nc: 994902 enctime: 6.12
c File: j6016_4.smnaive.wcnf
c optimal
c final solution cost: 60
c CPU time: 5.334216
s OPTIMUM FOUND

c File: j6016_4.sm.wcnf
c optimal
c final solution cost: 60
c CPU time: 0.830955
s OPTIMUM FOUND


j60
1000
0
rcpsp/heur_output_log_0/heurj60.txt
encoding rcpsp/j60.sm/j6016_5.sm nv: 2998710 nc: 5961344 enctime: 40.57
encoding rcpsp/j60.sm/j6016_5.sm nv: 608829 nc: 1208408 enctime: 7.12
c File: j6016_5.smnaive.wcnf
c optimal
c final solution cost: 66
c CPU time: 6.223199
s OPTIMUM FOUND

c File: j6016_5.sm.wcnf
c optimal
c final solution cost: 66
c CPU time: 1.054669
s OPTIMUM FOUND


j60
1000
0
rcpsp/heur_output_log_0/heurj60.txt
encoding rcpsp/j60.sm/j6016_6.sm nv: 2978536 nc: 5941237 enctime: 40.68
encoding rcpsp/j60.sm/j6016_6.sm nv: 551276 nc: 1097337 enctime: 6.89
c File: j6016_6.smnaive.wcnf
c optimal
c final solution cost: 66
c CPU time: 6.319917
s OPTIMUM FOUND

c File: j6016_6.sm.wcnf
c optimal
c final solution cost: 66
c CPU time: 0.992578
s OPTIMUM FOUND


j60
1000
0
rcpsp/heur_output_log_0/heurj60.txt
encoding rcpsp/j60.sm/j6016_7.sm nv: 1893492 nc: 3777215 enctime: 25.56
encoding rcpsp/j60.sm/j6016_7.sm nv: 527382 nc: 1050585 enctime: 5.94
c File: j6016_7.smnaive.wcnf
c optimal
c final solution cost: 82
c CPU time: 3.599879
s OPTIMUM FOUND

c File: j6016_7.sm.wcnf
c optimal
c final solution cost: 82
c CPU time: 0.827833
s OPTIMUM FOUND


j60
1000
0
rcpsp/heur_output_log_0/heurj60.txt
encoding rcpsp/j60.sm/j6016_8.sm nv: 2924757 nc: 5827222 enctime: 36.35
encoding rcpsp/j60.sm/j6016_8.sm nv: 591813 nc: 1177110 enctime: 6.69
c File: j6016_8.smnaive.wcnf
c optimal
c final solution cost: 68
c CPU time: 5.598910
s OPTIMUM FOUND

c File: j6016_8.sm.wcnf
c optimal
c final solution cost: 68
c CPU time: 0.932514
s OPTIMUM FOUND


j60
1000
0
rcpsp/heur_output_log_0/heurj60.txt
encoding rcpsp/j60.sm/j6016_9.sm nv: 2741508 nc: 5447876 enctime: 33.49
encoding rcpsp/j60.sm/j6016_9.sm nv: 468270 nc: 928634 enctime: 5.35
c File: j6016_9.smnaive.wcnf
c optimal
c final solution cost: 54
c CPU time: 5.279323
s OPTIMUM FOUND

c File: j6016_9.sm.wcnf
c optimal
c final solution cost: 54
c CPU time: 0.724801
s OPTIMUM FOUND


j60
1000
0
rcpsp/heur_output_log_0/heurj60.txt
encoding rcpsp/j60.sm/j601_6.sm nv: 107811 nc: 246550 enctime: 2.01
encoding rcpsp/j60.sm/j601_6.sm nv: 24684 nc: 54877 enctime: 0.31
c File: j601_6.smnaive.wcnf
c optimal
c final solution cost: 66
c CPU time: 1.134752
s OPTIMUM FOUND

c File: j601_6.sm.wcnf
c optimal
c final solution cost: 66
c CPU time: 0.165575
s OPTIMUM FOUND


j60
1000
0
rcpsp/heur_output_log_0/heurj60.txt
encoding rcpsp/j60.sm/j6017_10.sm nv: 150745 nc: 371157 enctime: 3.55
encoding rcpsp/j60.sm/j6017_10.sm nv: 32214 nc: 76982 enctime: 0.45
c File: j6017_10.smnaive.wcnf
c optimal
c final solution cost: 72
c CPU time: 1.773260
s OPTIMUM FOUND

c File: j6017_10.sm.wcnf
c optimal
c final solution cost: 72
c CPU time: 0.128073
s OPTIMUM FOUND


j60
1000
0
rcpsp/heur_output_log_0/heurj60.txt
encoding rcpsp/j60.sm/j6017_1.sm nv: 113982 nc: 272793 enctime: 2.45
encoding rcpsp/j60.sm/j6017_1.sm nv: 33033 nc: 77445 enctime: 0.45
c File: j6017_1.smnaive.wcnf
c optimal
c final solution cost: 86
c CPU time: 1.105667
s OPTIMUM FOUND

c File: j6017_1.sm.wcnf
c optimal
c final solution cost: 86
c CPU time: 0.142444
s OPTIMUM FOUND


j60
1000
0
rcpsp/heur_output_log_0/heurj60.txt
encoding rcpsp/j60.sm/j6017_2.sm nv: 114138 nc: 271114 enctime: 2.39
encoding rcpsp/j60.sm/j6017_2.sm nv: 30213 nc: 70189 enctime: 0.40
c File: j6017_2.smnaive.wcnf
c optimal
c final solution cost: 69
c CPU time: 0.880398
s OPTIMUM FOUND

c File: j6017_2.sm.wcnf
c optimal
c final solution cost: 69
c CPU time: 0.169766
s OPTIMUM FOUND


